35
65
1 6 11 24 25 
8 25 26 31 32 
1 3 6 19 23 
2 7 11 20 25 
4 12 16 19 22 
1 6 8 13 32 
2 10 21 23 24 
1 6 16 29 32 
1 2 7 32 33 
19 21 22 30 33 
10 16 29 30 33 
11 14 24 29 34 
1 14 20 24 31 
1 4 11 17 24 
6 18 28 29 33 
5 24 25 29 35 
10 11 16 30 32 
1 4 6 25 26 
3 16 21 28 34 
13 20 21 24 26 
2 12 19 22 35 
3 7 24 26 33 
9 13 18 31 34 
1 7 8 15 23 
8 11 21 27 29 
9 11 25 29 31 
4 7 12 16 27 
6 20 25 26 31 
9 10 16 28 29 
15 17 21 22 29 
1 
2 
3 
4 
5 
6 
7 
8 
9 
10 
11 
12 
13 
14 
15 
16 
17 
18 
19 
20 
21 
22 
23 
24 
25 
26 
27 
28 
29 
30 
31 
32 
33 
34 
35 
